SDVRP instances/custom_instances/p01_7_split0.vrp
NAME:p01_7_split
BEST_KNOWN: 0
COMMENT: 0
DIMENSION: 210
CAPACITY: 160
EDGE_WEIGHT_FORMAT: FUNCTION
EDGE_WEIGHT_TYPE: EXACT_2D
NODE_COORD_SECTION
1 0.00000 0.00000
2 -34 -15
3 -34 -15
4 -34 -15
5 -34 -15
6 -25 45
7 -25 45
8 -25 45
9 -25 45
10 34 1
11 34 1
12 28 -33
13 28 -33
14 28 -33
15 -41 -43
16 -41 -43
17 -41 -43
18 -41 -43
19 -41 -43
20 -39 18
21 -39 18
22 -39 18
23 -39 18
24 -39 18
25 -33 -38
26 -33 -38
27 -35 43
28 -35 43
29 -35 43
30 -35 43
31 -1 8
32 -1 8
33 -1 8
34 -25 27
35 -25 27
36 -25 27
37 -25 27
38 18 -3
39 18 -3
40 18 -3
41 18 -3
42 18 -3
43 -43 4
44 -43 4
45 -43 4
46 -43 4
47 28 27
48 28 27
49 28 27
50 28 27
51 28 27
52 28 27
53 -11 0
54 -11 0
55 -11 0
56 41 49
57 41 49
58 41 49
59 41 49
60 -11 18
61 -11 18
62 -11 18
63 9 -37
64 9 -37
65 9 -37
66 9 -37
67 9 -37
68 9 -37
69 9 -37
70 29 -25
71 29 -25
72 1 -2
73 1 -2
74 1 -2
75 -11 -14
76 -11 -14
77 -11 -14
78 -11 -14
79 -11 -14
80 -11 -14
81 -11 -14
82 -3 -19
83 -3 -19
84 -3 -19
85 -3 -19
86 -3 -19
87 39 31
88 39 31
89 39 31
90 39 31
91 39 31
92 22 -46
93 22 -46
94 22 -46
95 22 -46
96 49 -38
97 49 -38
98 49 -38
99 49 -38
100 49 -38
101 -6 -40
102 -6 -40
103 -6 -40
104 -6 -40
105 -6 -40
106 -4 36
107 -4 36
108 -4 36
109 -15 50
110 -15 50
111 -15 50
112 -15 50
113 -15 50
114 -43 28
115 -43 28
116 -43 28
117 -11 1
118 -11 1
119 -11 1
120 -11 1
121 -23 -6
122 -23 -6
123 -23 -6
124 -23 -6
125 -23 -6
126 -23 -6
127 -21 -7
128 -21 -7
129 -21 -7
130 -21 -7
131 -21 -7
132 5 1
133 5 1
134 2 18
135 2 18
136 2 18
137 2 18
138 2 18
139 -5 -14
140 -5 -14
141 -5 -14
142 -5 -14
143 -5 -14
144 8 5
145 8 5
146 8 5
147 8 5
148 46 -9
149 46 -9
150 46 -9
151 -42 21
152 -42 21
153 -42 21
154 -7 -23
155 32 -10
156 32 -10
157 32 -10
158 32 -10
159 32 -10
160 -36 33
161 -36 33
162 -36 33
163 -36 33
164 -36 33
165 -36 33
166 -3 -44
167 -3 -44
168 -3 -44
169 -3 -44
170 16 -21
171 16 -21
172 16 -21
173 16 -21
174 49 34
175 49 34
176 49 34
177 49 34
178 49 34
179 -45 -28
180 -45 -28
181 -45 -28
182 -45 -28
183 -43 -32
184 -43 -32
185 -43 -32
186 -43 -32
187 -43 -32
188 -43 -32
189 -20 39
190 -20 39
191 -20 39
192 -20 39
193 -20 39
194 45 1
195 45 1
196 45 1
197 45 1
198 45 1
199 30 -26
200 30 -26
201 30 -26
202 35 -50
203 35 -50
204 35 -50
205 35 -50
206 35 -50
207 -43 -13
208 -43 -13
209 -43 -13
210 -43 -13
DEMAND_SECTION
1 0
2 16
3 8
4 2
5 2
6 32
7 32
8 2
9 2
10 32
11 2
12 32
13 2
14 2
15 32
16 16
17 8
18 2
19 2
20 32
21 8
22 2
23 2
24 2
25 32
26 16
27 16
28 8
29 2
30 2
31 32
32 16
33 8
34 32
35 2
36 2
37 1
38 32
39 16
40 8
41 2
42 1
43 32
44 2
45 2
46 1
47 32
48 32
49 2
50 2
51 2
52 1
53 16
54 8
55 1
56 16
57 2
58 2
59 2
60 32
61 32
62 8
63 32
64 32
65 8
66 2
67 2
68 2
69 1
70 32
71 8
72 32
73 16
74 1
75 32
76 32
77 8
78 2
79 2
80 2
81 1
82 16
83 8
84 2
85 2
86 2
87 32
88 8
89 2
90 2
91 2
92 32
93 16
94 2
95 1
96 32
97 16
98 8
99 2
100 1
101 32
102 16
103 8
104 2
105 1
106 32
107 32
108 2
109 32
110 32
111 8
112 2
113 1
114 32
115 2
116 2
117 16
118 2
119 2
120 2
121 32
122 16
123 8
124 2
125 2
126 2
127 16
128 2
129 2
130 2
131 1
132 32
133 2
134 16
135 2
136 2
137 2
138 1
139 32
140 2
141 2
142 2
143 1
144 32
145 16
146 8
147 2
148 32
149 32
150 1
151 16
152 8
153 1
154 32
155 32
156 8
157 2
158 2
159 2
160 32
161 16
162 8
163 2
164 2
165 2
166 16
167 8
168 2
169 2
170 32
171 16
172 2
173 2
174 32
175 32
176 2
177 2
178 2
179 32
180 16
181 8
182 1
183 32
184 8
185 2
186 2
187 2
188 1
189 32
190 32
191 2
192 2
193 2
194 32
195 16
196 2
197 2
198 2
199 32
200 16
201 1
202 32
203 32
204 8
205 2
206 2
207 32
208 32
209 2
210 1
DEPOT_SECTION
1
-1
EOF