SDVRP instances/custom_instances/p01_7_split0.sol
209 -1 4 2 3 180 181 179 178 206 207 208 209 123 124 -6 8 5 7 26 27 29 28 164 163 161 159 160 162 -11 203 204 205 202 201 92 91 93 94 -12 13 97 99 98 95 96 198 200 199 70 69 39 -31 32 30 146 145 144 143 132 131 -34 36 33 35 115 113 114 151 152 150 21 22 19 20 23 116 -38 37 41 149 147 148 154 155 157 158 156 -40 9 10 197 194 196 193 195 47 46 -48 51 49 50 58 55 56 57 174 173 175 176 177 86 90 89 87 88 -54 52 53 117 119 118 44 45 42 43 121 120 122 125 128 126 129 127 130 -60 59 105 107 106 133 137 135 134 136 -61 190 191 189 192 188 112 110 111 109 108 -63 64 62 65 68 66 67 172 169 171 170 -73 72 71 138 76 74 75 80 77 -79 78 25 24 15 17 18 14 16 182 185 187 186 184 183 -84 85 81 83 82 167 168 165 166 100 101 102 103 104 153 142 141 139 140 0 





OBJ=
1595.065
BEST_KNOWN=
0.000